
Gurobi 8.1.0 (win64, Python) logging started 03/14/19 19:08:19

Optimize a model with 2 rows, 3 columns and 5 nonzeros
Variable types: 0 continuous, 3 integer (3 binary)
Coefficient statistics:
  Matrix range     [1e+00, 3e+00]
  Objective range  [1e+00, 2e+00]
  Bounds range     [1e+00, 1e+00]
  RHS range        [1e+00, 4e+00]
Found heuristic solution: objective 2.0000000
Presolve removed 2 rows and 3 columns
Presolve time: 0.01s
Presolve: All rows and columns removed

Explored 0 nodes (0 simplex iterations) in 0.01 seconds
Thread count was 1 (of 8 available processors)

Solution count 2: 3 2 

Optimal solution found (tolerance 1.00e-04)
Best objective 3.000000000000e+00, best bound 3.000000000000e+00, gap 0.0000%

Gurobi 8.1.0 (win64, Python) logging started 03/14/19 19:12:34


Gurobi 8.1.0 (win64, Python) logging started 03/14/19 19:12:42

Optimize a model with 2 rows, 3 columns and 5 nonzeros
Variable types: 0 continuous, 3 integer (3 binary)
Coefficient statistics:
  Matrix range     [1e+00, 3e+00]
  Objective range  [1e+00, 2e+00]
  Bounds range     [1e+00, 1e+00]
  RHS range        [1e+00, 4e+00]
Found heuristic solution: objective 2.0000000
Presolve removed 2 rows and 3 columns
Presolve time: 0.00s
Presolve: All rows and columns removed

Explored 0 nodes (0 simplex iterations) in 0.00 seconds
Thread count was 1 (of 8 available processors)

Solution count 2: 3 2 

Optimal solution found (tolerance 1.00e-04)
Best objective 3.000000000000e+00, best bound 3.000000000000e+00, gap 0.0000%

Gurobi 8.1.0 (win64, Python) logging started 03/15/19 08:15:39


Gurobi 8.1.0 (win64, Python) logging started 03/15/19 08:20:16


Gurobi 8.1.0 (win64, Python) logging started 03/15/19 09:39:11


Gurobi 8.1.0 (win64, Python) logging started 03/15/19 09:39:49


Gurobi 8.1.0 (win64, Python) logging started 03/15/19 09:41:39

Optimize a model with 1 rows, 40 columns and 0 nonzeros
Variable types: 0 continuous, 40 integer (40 binary)
Coefficient statistics:
  Matrix range     [0e+00, 0e+00]
  Objective range  [0e+00, 0e+00]
  Bounds range     [1e+00, 1e+00]
  RHS range        [1e+00, 1e+00]
Presolve time: 0.00s

Explored 0 nodes (0 simplex iterations) in 0.01 seconds
Thread count was 1 (of 8 available processors)

Solution count 0

Model is infeasible
Best objective -, best bound -, gap -

Gurobi 8.1.0 (win64, Python) logging started 03/15/19 09:46:55

Optimize a model with 1 rows, 40 columns and 40 nonzeros
Variable types: 0 continuous, 40 integer (40 binary)
Coefficient statistics:
  Matrix range     [1e+04, 9e+04]
  Objective range  [1e+04, 9e+04]
  Bounds range     [1e+00, 1e+00]
  RHS range        [1e+05, 1e+05]
Found heuristic solution: objective 90001.000000
Presolve removed 0 rows and 1 columns
Presolve time: 0.01s
Presolved: 1 rows, 39 columns, 39 nonzeros
Variable types: 0 continuous, 39 integer (39 binary)

Root relaxation: objective 1.001154e+05, 1 iterations, 0.00 seconds

    Nodes    |    Current Node    |     Objective Bounds      |     Work
 Expl Unexpl |  Obj  Depth IntInf | Incumbent    BestBd   Gap | It/Node Time

     0     0 100115.421    0    1 90001.0000 100115.421  11.2%     -    0s
H    0     0                    96474.000000 100115.421  3.77%     -    0s
     0     0 100114.213    0    1 96474.0000 100114.213  3.77%     -    0s
     0     0 100114.213    0    1 96474.0000 100114.213  3.77%     -    0s
     0     2 100114.213    0    1 96474.0000 100114.213  3.77%     -    0s
H   37    33                    99924.000000 100109.640  0.19%   1.2    0s

Cutting planes:
  Cover: 89
  MIR: 1
  StrongCG: 1

Explored 3367 nodes (4304 simplex iterations) in 0.15 seconds
Thread count was 8 (of 8 available processors)

Solution count 3: 99924 96474 90001 

Optimal solution found (tolerance 1.00e-04)
Best objective 9.992400000000e+04, best bound 9.992400000000e+04, gap 0.0000%

Gurobi 8.1.0 (win64, Python) logging started 03/15/19 09:52:42

Optimize a model with 1 rows, 40 columns and 40 nonzeros
Variable types: 0 continuous, 40 integer (40 binary)
Coefficient statistics:
  Matrix range     [1e+04, 9e+04]
  Objective range  [1e+04, 9e+04]
  Bounds range     [1e+00, 1e+00]
  RHS range        [1e+05, 1e+05]
Found heuristic solution: objective 90001.000000
Presolve removed 0 rows and 1 columns
Presolve time: 0.00s
Presolved: 1 rows, 39 columns, 39 nonzeros
Variable types: 0 continuous, 39 integer (39 binary)

Root relaxation: objective 1.001154e+05, 1 iterations, 0.00 seconds

    Nodes    |    Current Node    |     Objective Bounds      |     Work
 Expl Unexpl |  Obj  Depth IntInf | Incumbent    BestBd   Gap | It/Node Time

     0     0 100115.421    0    1 90001.0000 100115.421  11.2%     -    0s
H    0     0                    96474.000000 100115.421  3.77%     -    0s
     0     0 100114.213    0    1 96474.0000 100114.213  3.77%     -    0s
     0     0 100114.213    0    1 96474.0000 100114.213  3.77%     -    0s
     0     2 100114.213    0    1 96474.0000 100114.213  3.77%     -    0s
H   37    33                    99924.000000 100109.640  0.19%   1.2    0s

Cutting planes:
  Cover: 89
  MIR: 1
  StrongCG: 1

Explored 3367 nodes (4304 simplex iterations) in 0.12 seconds
Thread count was 8 (of 8 available processors)

Solution count 3: 99924 96474 90001 

Optimal solution found (tolerance 1.00e-04)
Best objective 9.992400000000e+04, best bound 9.992400000000e+04, gap 0.0000%

Gurobi 8.1.0 (win64, Python) logging started 03/15/19 09:56:29

Optimize a model with 1 rows, 40 columns and 40 nonzeros
Variable types: 0 continuous, 40 integer (40 binary)
Coefficient statistics:
  Matrix range     [1e+04, 9e+04]
  Objective range  [1e+04, 9e+04]
  Bounds range     [1e+00, 1e+00]
  RHS range        [1e+05, 1e+05]
Found heuristic solution: objective 90001.000000
Presolve removed 0 rows and 1 columns
Presolve time: 0.00s
Presolved: 1 rows, 39 columns, 39 nonzeros
Variable types: 0 continuous, 39 integer (39 binary)

Root relaxation: objective 1.001154e+05, 1 iterations, 0.00 seconds

    Nodes    |    Current Node    |     Objective Bounds      |     Work
 Expl Unexpl |  Obj  Depth IntInf | Incumbent    BestBd   Gap | It/Node Time

     0     0 100115.421    0    1 90001.0000 100115.421  11.2%     -    0s
H    0     0                    96474.000000 100115.421  3.77%     -    0s
     0     0 100114.213    0    1 96474.0000 100114.213  3.77%     -    0s
     0     0 100114.213    0    1 96474.0000 100114.213  3.77%     -    0s
     0     2 100114.213    0    1 96474.0000 100114.213  3.77%     -    0s
H   37    33                    99924.000000 100109.640  0.19%   1.2    0s

Cutting planes:
  Cover: 89
  MIR: 1
  StrongCG: 1

Explored 3367 nodes (4304 simplex iterations) in 0.15 seconds
Thread count was 8 (of 8 available processors)

Solution count 3: 99924 96474 90001 

Optimal solution found (tolerance 1.00e-04)
Best objective 9.992400000000e+04, best bound 9.992400000000e+04, gap 0.0000%

Gurobi 8.1.0 (win64, Python) logging started 03/15/19 09:58:13

Optimize a model with 1 rows, 40 columns and 40 nonzeros
Variable types: 0 continuous, 40 integer (40 binary)
Coefficient statistics:
  Matrix range     [1e+04, 9e+04]
  Objective range  [1e+04, 9e+04]
  Bounds range     [1e+00, 1e+00]
  RHS range        [1e+05, 1e+05]
Found heuristic solution: objective 90001.000000
Presolve removed 0 rows and 1 columns
Presolve time: 0.00s
Presolved: 1 rows, 39 columns, 39 nonzeros
Variable types: 0 continuous, 39 integer (39 binary)

Root relaxation: objective 1.001154e+05, 1 iterations, 0.00 seconds

    Nodes    |    Current Node    |     Objective Bounds      |     Work
 Expl Unexpl |  Obj  Depth IntInf | Incumbent    BestBd   Gap | It/Node Time

     0     0 100115.421    0    1 90001.0000 100115.421  11.2%     -    0s
H    0     0                    96474.000000 100115.421  3.77%     -    0s
     0     0 100114.213    0    1 96474.0000 100114.213  3.77%     -    0s
     0     0 100114.213    0    1 96474.0000 100114.213  3.77%     -    0s
     0     2 100114.213    0    1 96474.0000 100114.213  3.77%     -    0s
H   37    33                    99924.000000 100109.640  0.19%   1.2    0s

Cutting planes:
  Cover: 89
  MIR: 1
  StrongCG: 1

Explored 3367 nodes (4304 simplex iterations) in 0.11 seconds
Thread count was 8 (of 8 available processors)

Solution count 3: 99924 96474 90001 

Optimal solution found (tolerance 1.00e-04)
Best objective 9.992400000000e+04, best bound 9.992400000000e+04, gap 0.0000%

Gurobi 8.1.0 (win64, Python) logging started 03/15/19 09:58:58

Optimize a model with 1 rows, 40 columns and 40 nonzeros
Variable types: 0 continuous, 40 integer (40 binary)
Coefficient statistics:
  Matrix range     [1e+04, 9e+04]
  Objective range  [1e+04, 9e+04]
  Bounds range     [1e+00, 1e+00]
  RHS range        [1e+05, 1e+05]
Found heuristic solution: objective 90001.000000
Presolve removed 0 rows and 1 columns
Presolve time: 0.00s
Presolved: 1 rows, 39 columns, 39 nonzeros
Variable types: 0 continuous, 39 integer (39 binary)

Root relaxation: objective 1.001154e+05, 1 iterations, 0.00 seconds

    Nodes    |    Current Node    |     Objective Bounds      |     Work
 Expl Unexpl |  Obj  Depth IntInf | Incumbent    BestBd   Gap | It/Node Time

     0     0 100115.421    0    1 90001.0000 100115.421  11.2%     -    0s
H    0     0                    96474.000000 100115.421  3.77%     -    0s
     0     0 100114.213    0    1 96474.0000 100114.213  3.77%     -    0s
     0     0 100114.213    0    1 96474.0000 100114.213  3.77%     -    0s
     0     2 100114.213    0    1 96474.0000 100114.213  3.77%     -    0s
H   37    33                    99924.000000 100109.640  0.19%   1.2    0s

Cutting planes:
  Cover: 89
  MIR: 1
  StrongCG: 1

Explored 3367 nodes (4304 simplex iterations) in 0.11 seconds
Thread count was 8 (of 8 available processors)

Solution count 3: 99924 96474 90001 

Optimal solution found (tolerance 1.00e-04)
Best objective 9.992400000000e+04, best bound 9.992400000000e+04, gap 0.0000%

Gurobi 8.1.0 (win64, Python) logging started 03/15/19 09:59:12

Optimize a model with 1 rows, 40 columns and 40 nonzeros
Variable types: 0 continuous, 40 integer (40 binary)
Coefficient statistics:
  Matrix range     [1e+04, 9e+04]
  Objective range  [1e+04, 9e+04]
  Bounds range     [1e+00, 1e+00]
  RHS range        [1e+05, 1e+05]
Found heuristic solution: objective 90001.000000
Presolve removed 0 rows and 1 columns
Presolve time: 0.00s
Presolved: 1 rows, 39 columns, 39 nonzeros
Variable types: 0 continuous, 39 integer (39 binary)

Root relaxation: objective 1.001154e+05, 1 iterations, 0.00 seconds

    Nodes    |    Current Node    |     Objective Bounds      |     Work
 Expl Unexpl |  Obj  Depth IntInf | Incumbent    BestBd   Gap | It/Node Time

     0     0 100115.421    0    1 90001.0000 100115.421  11.2%     -    0s
H    0     0                    96474.000000 100115.421  3.77%     -    0s
     0     0 100114.213    0    1 96474.0000 100114.213  3.77%     -    0s
     0     0 100114.213    0    1 96474.0000 100114.213  3.77%     -    0s
     0     2 100114.213    0    1 96474.0000 100114.213  3.77%     -    0s
H   37    33                    99924.000000 100109.640  0.19%   1.2    0s

Cutting planes:
  Cover: 89
  MIR: 1
  StrongCG: 1

Explored 3367 nodes (4304 simplex iterations) in 0.11 seconds
Thread count was 8 (of 8 available processors)

Solution count 3: 99924 96474 90001 

Optimal solution found (tolerance 1.00e-04)
Best objective 9.992400000000e+04, best bound 9.992400000000e+04, gap 0.0000%

Gurobi 8.1.0 (win64, Python) logging started 03/15/19 10:04:35

Optimize a model with 1 rows, 40 columns and 40 nonzeros
Variable types: 0 continuous, 40 integer (40 binary)
Coefficient statistics:
  Matrix range     [1e+04, 9e+04]
  Objective range  [1e+04, 9e+04]
  Bounds range     [1e+00, 1e+00]
  RHS range        [1e+05, 1e+05]
Found heuristic solution: objective 90001.000000
Presolve removed 0 rows and 1 columns
Presolve time: 0.00s
Presolved: 1 rows, 39 columns, 39 nonzeros
Variable types: 0 continuous, 39 integer (39 binary)

Root relaxation: objective 1.001154e+05, 1 iterations, 0.00 seconds

    Nodes    |    Current Node    |     Objective Bounds      |     Work
 Expl Unexpl |  Obj  Depth IntInf | Incumbent    BestBd   Gap | It/Node Time

     0     0 100115.421    0    1 90001.0000 100115.421  11.2%     -    0s
H    0     0                    96474.000000 100115.421  3.77%     -    0s
     0     0 100114.213    0    1 96474.0000 100114.213  3.77%     -    0s
     0     0 100114.213    0    1 96474.0000 100114.213  3.77%     -    0s
     0     2 100114.213    0    1 96474.0000 100114.213  3.77%     -    0s
H   37    33                    99924.000000 100109.640  0.19%   1.2    0s

Cutting planes:
  Cover: 89
  MIR: 1
  StrongCG: 1

Explored 3367 nodes (4304 simplex iterations) in 0.13 seconds
Thread count was 8 (of 8 available processors)

Solution count 3: 99924 96474 90001 

Optimal solution found (tolerance 1.00e-04)
Best objective 9.992400000000e+04, best bound 9.992400000000e+04, gap 0.0000%

Gurobi 8.1.0 (win64, Python) logging started 03/15/19 10:06:10

Optimize a model with 1 rows, 40 columns and 40 nonzeros
Variable types: 0 continuous, 40 integer (40 binary)
Coefficient statistics:
  Matrix range     [1e+04, 9e+04]
  Objective range  [1e+04, 9e+04]
  Bounds range     [1e+00, 1e+00]
  RHS range        [1e+05, 1e+05]
Found heuristic solution: objective 90001.000000
Presolve removed 0 rows and 1 columns
Presolve time: 0.00s
Presolved: 1 rows, 39 columns, 39 nonzeros
Variable types: 0 continuous, 39 integer (39 binary)

Root relaxation: objective 1.001154e+05, 1 iterations, 0.00 seconds

    Nodes    |    Current Node    |     Objective Bounds      |     Work
 Expl Unexpl |  Obj  Depth IntInf | Incumbent    BestBd   Gap | It/Node Time

     0     0 100115.421    0    1 90001.0000 100115.421  11.2%     -    0s
H    0     0                    96474.000000 100115.421  3.77%     -    0s
     0     0 100114.213    0    1 96474.0000 100114.213  3.77%     -    0s
     0     0 100114.213    0    1 96474.0000 100114.213  3.77%     -    0s
     0     2 100114.213    0    1 96474.0000 100114.213  3.77%     -    0s
H   37    33                    99924.000000 100109.640  0.19%   1.2    0s

Cutting planes:
  Cover: 89
  MIR: 1
  StrongCG: 1

Explored 3367 nodes (4304 simplex iterations) in 0.12 seconds
Thread count was 8 (of 8 available processors)

Solution count 3: 99924 96474 90001 

Optimal solution found (tolerance 1.00e-04)
Best objective 9.992400000000e+04, best bound 9.992400000000e+04, gap 0.0000%

Gurobi 8.1.0 (win64, Python) logging started 03/15/19 10:07:00

Optimize a model with 1 rows, 40 columns and 40 nonzeros
Variable types: 0 continuous, 40 integer (40 binary)
Coefficient statistics:
  Matrix range     [1e+04, 9e+04]
  Objective range  [1e+04, 9e+04]
  Bounds range     [1e+00, 1e+00]
  RHS range        [1e+05, 1e+05]
Found heuristic solution: objective 90001.000000
Presolve removed 0 rows and 1 columns
Presolve time: 0.00s
Presolved: 1 rows, 39 columns, 39 nonzeros
Variable types: 0 continuous, 39 integer (39 binary)

Root relaxation: objective 1.001154e+05, 1 iterations, 0.00 seconds

    Nodes    |    Current Node    |     Objective Bounds      |     Work
 Expl Unexpl |  Obj  Depth IntInf | Incumbent    BestBd   Gap | It/Node Time

     0     0 100115.421    0    1 90001.0000 100115.421  11.2%     -    0s
H    0     0                    96474.000000 100115.421  3.77%     -    0s
     0     0 100114.213    0    1 96474.0000 100114.213  3.77%     -    0s
     0     0 100114.213    0    1 96474.0000 100114.213  3.77%     -    0s
     0     2 100114.213    0    1 96474.0000 100114.213  3.77%     -    0s
H   37    33                    99924.000000 100109.640  0.19%   1.2    0s

Cutting planes:
  Cover: 89
  MIR: 1
  StrongCG: 1

Explored 3367 nodes (4304 simplex iterations) in 0.11 seconds
Thread count was 8 (of 8 available processors)

Solution count 3: 99924 96474 90001 

Optimal solution found (tolerance 1.00e-04)
Best objective 9.992400000000e+04, best bound 9.992400000000e+04, gap 0.0000%

Gurobi 8.1.0 (win64, Python) logging started 03/15/19 10:07:48

Optimize a model with 1 rows, 30 columns and 30 nonzeros
Variable types: 0 continuous, 30 integer (30 binary)
Coefficient statistics:
  Matrix range     [1e+04, 9e+04]
  Objective range  [1e+04, 9e+04]
  Bounds range     [1e+00, 1e+00]
  RHS range        [1e+05, 1e+05]
Found heuristic solution: objective 90000.000000
Presolve removed 0 rows and 1 columns
Presolve time: 0.00s
Presolved: 1 rows, 29 columns, 29 nonzeros
Variable types: 0 continuous, 29 integer (29 binary)

Root relaxation: objective 9.995426e+04, 1 iterations, 0.00 seconds

    Nodes    |    Current Node    |     Objective Bounds      |     Work
 Expl Unexpl |  Obj  Depth IntInf | Incumbent    BestBd   Gap | It/Node Time

     0     0 99954.2584    0    1 90000.0000 99954.2584  11.1%     -    0s
H    0     0                    99798.000000 99954.2584  0.16%     -    0s
     0     0 99951.3889    0    2 99798.0000 99951.3889  0.15%     -    0s
     0     0 99951.3889    0    2 99798.0000 99951.3889  0.15%     -    0s
     0     0 99951.3889    0    2 99798.0000 99951.3889  0.15%     -    0s

Cutting planes:
  Cover: 1
  MIR: 1

Explored 1 nodes (4 simplex iterations) in 0.01 seconds
Thread count was 8 (of 8 available processors)

Solution count 2: 99798 90000 

Optimal solution found (tolerance 1.00e-04)
Best objective 9.979800000000e+04, best bound 9.979800000000e+04, gap 0.0000%
Optimize a model with 1 rows, 50 columns and 50 nonzeros
Variable types: 0 continuous, 50 integer (50 binary)
Coefficient statistics:
  Matrix range     [6e+02, 2e+05]
  Objective range  [7e+01, 1e+05]
  Bounds range     [1e+00, 1e+00]
  RHS range        [3e+05, 3e+05]
Found heuristic solution: objective 140034.00000
Presolve removed 0 rows and 1 columns
Presolve time: 0.00s
Presolved: 1 rows, 49 columns, 49 nonzeros
Variable types: 0 continuous, 49 integer (48 binary)

Root relaxation: objective 1.424183e+05, 1 iterations, 0.00 seconds

    Nodes    |    Current Node    |     Objective Bounds      |     Work
 Expl Unexpl |  Obj  Depth IntInf | Incumbent    BestBd   Gap | It/Node Time

     0     0 142418.261    0    1 140034.000 142418.261  1.70%     -    0s
H    0     0                    141907.00000 142418.261  0.36%     -    0s
H    0     0                    142156.00000 142418.261  0.18%     -    0s
     0     0 142348.855    0    1 142156.000 142348.855  0.14%     -    0s
     0     0 142309.756    0    1 142156.000 142309.756  0.11%     -    0s
     0     0 142307.298    0    1 142156.000 142307.298  0.11%     -    0s

Cutting planes:
  Cover: 2
  MIR: 1

Explored 1 nodes (4 simplex iterations) in 0.03 seconds
Thread count was 8 (of 8 available processors)

Solution count 3: 142156 141907 140034 

Optimal solution found (tolerance 1.00e-04)
Best objective 1.421560000000e+05, best bound 1.421560000000e+05, gap 0.0000%
Optimize a model with 1 rows, 200 columns and 200 nonzeros
Variable types: 0 continuous, 200 integer (200 binary)
Coefficient statistics:
  Matrix range     [1e+04, 9e+04]
  Objective range  [1e+04, 9e+04]
  Bounds range     [1e+00, 1e+00]
  RHS range        [1e+05, 1e+05]
Found heuristic solution: objective 90001.000000
Presolve time: 0.00s
Presolved: 1 rows, 200 columns, 200 nonzeros
Variable types: 0 continuous, 200 integer (200 binary)

Root relaxation: objective 1.002853e+05, 1 iterations, 0.00 seconds

    Nodes    |    Current Node    |     Objective Bounds      |     Work
 Expl Unexpl |  Obj  Depth IntInf | Incumbent    BestBd   Gap | It/Node Time

     0     0 100285.340    0    1 90001.0000 100285.340  11.4%     -    0s
H    0     0                    100062.00000 100285.340  0.22%     -    0s
H    0     0                    100236.00000 100285.078  0.05%     -    0s
     0     0 100283.988    0    1 100236.000 100283.988  0.05%     -    0s

Cutting planes:
  Cover: 1

Explored 1 nodes (2 simplex iterations) in 0.06 seconds
Thread count was 8 (of 8 available processors)

Solution count 3: 100236 100062 90001 

Optimal solution found (tolerance 1.00e-04)
Best objective 1.002360000000e+05, best bound 1.002360000000e+05, gap 0.0000%
Optimize a model with 1 rows, 400 columns and 400 nonzeros
Variable types: 0 continuous, 400 integer (400 binary)
Coefficient statistics:
  Matrix range     [5e+02, 3e+06]
  Objective range  [2e+01, 1e+06]
  Bounds range     [1e+00, 1e+00]
  RHS range        [9e+06, 9e+06]
Found heuristic solution: objective 3936579.0000
Presolve removed 0 rows and 66 columns
Presolve time: 0.00s
Presolved: 1 rows, 334 columns, 334 nonzeros
Variable types: 0 continuous, 334 integer (304 binary)

Root relaxation: objective 3.967618e+06, 1 iterations, 0.00 seconds

    Nodes    |    Current Node    |     Objective Bounds      |     Work
 Expl Unexpl |  Obj  Depth IntInf | Incumbent    BestBd   Gap | It/Node Time

     0     0 3967617.87    0    1 3936579.00 3967617.87  0.79%     -    0s
H    0     0                    3966776.0000 3967617.87  0.02%     -    0s
H    0     0                    3967080.0000 3967617.87  0.01%     -    0s
H    0     0                    3967108.0000 3967617.87  0.01%     -    0s
H    0     0                    3967132.0000 3967613.72  0.01%     -    0s
     0     0 3967446.05    0    1 3967132.00 3967446.05  0.01%     -    0s

Cutting planes:
  Cover: 1

Explored 1 nodes (2 simplex iterations) in 0.20 seconds
Thread count was 8 (of 8 available processors)

Solution count 5: 3.96713e+06 3.96711e+06 3.96708e+06 ... 3.93658e+06

Optimal solution found (tolerance 1.00e-04)
Best objective 3.967132000000e+06, best bound 3.967446000000e+06, gap 0.0079%
Optimize a model with 1 rows, 1000 columns and 1000 nonzeros
Variable types: 0 continuous, 1000 integer (1000 binary)
Coefficient statistics:
  Matrix range     [1e+00, 2e+04]
  Objective range  [1e+00, 2e+04]
  Bounds range     [1e+00, 1e+00]
  RHS range        [1e+05, 1e+05]
Found heuristic solution: objective 100891.00000
Presolve time: 0.00s
Presolved: 1 rows, 1000 columns, 1000 nonzeros
Variable types: 0 continuous, 1000 integer (1000 binary)

Root relaxation: objective 1.099083e+05, 1 iterations, 0.00 seconds

    Nodes    |    Current Node    |     Objective Bounds      |     Work
 Expl Unexpl |  Obj  Depth IntInf | Incumbent    BestBd   Gap | It/Node Time

     0     0 109908.296    0    1 100891.000 109908.296  8.94%     -    0s
H    0     0                    109798.00000 109908.296  0.10%     -    0s
H    0     0                    109867.00000 109908.296  0.04%     -    0s
H    0     0                    109899.00000 109908.296  0.01%     -    0s

Explored 1 nodes (1 simplex iterations) in 0.02 seconds
Thread count was 8 (of 8 available processors)

Solution count 4: 109899 109867 109798 100891 

Optimal solution found (tolerance 1.00e-04)
Best objective 1.098990000000e+05, best bound 1.099080000000e+05, gap 0.0082%
Optimize a model with 1 rows, 10000 columns and 10000 nonzeros
Variable types: 0 continuous, 10000 integer (10000 binary)
Coefficient statistics:
  Matrix range     [9e+00, 2e+05]
  Objective range  [8e+00, 2e+05]
  Bounds range     [1e+00, 1e+00]
  RHS range        [1e+06, 1e+06]
Found heuristic solution: objective 1012574.0000
Presolve time: 0.02s
Presolved: 1 rows, 10000 columns, 10000 nonzeros
Variable types: 0 continuous, 10000 integer (10000 binary)

Root relaxation: objective 1.099906e+06, 1 iterations, 0.00 seconds

    Nodes    |    Current Node    |     Objective Bounds      |     Work
 Expl Unexpl |  Obj  Depth IntInf | Incumbent    BestBd   Gap | It/Node Time

     0     0 1099906.01    0    1 1012574.00 1099906.01  8.62%     -    0s
H    0     0                    1099607.0000 1099906.01  0.03%     -    0s
H    0     0                    1099807.0000 1099906.01  0.01%     -    0s

Explored 1 nodes (1 simplex iterations) in 0.07 seconds
Thread count was 8 (of 8 available processors)

Solution count 3: 1.09981e+06 1.09961e+06 1.01257e+06 

Optimal solution found (tolerance 1.00e-04)
Best objective 1.099807000000e+06, best bound 1.099906000000e+06, gap 0.0090%

Gurobi 8.1.0 (win64, Python) logging started 03/15/19 10:13:02

Changed value of parameter MIPGap to 1e-05
   Prev: 0.0001  Min: 0.0  Max: 1e+100  Default: 0.0001
Optimize a model with 1 rows, 40 columns and 40 nonzeros
Variable types: 0 continuous, 40 integer (40 binary)
Coefficient statistics:
  Matrix range     [1e+04, 9e+04]
  Objective range  [1e+04, 9e+04]
  Bounds range     [1e+00, 1e+00]
  RHS range        [1e+05, 1e+05]
Found heuristic solution: objective 90001.000000
Presolve removed 0 rows and 1 columns
Presolve time: 0.00s
Presolved: 1 rows, 39 columns, 39 nonzeros
Variable types: 0 continuous, 39 integer (39 binary)

Root relaxation: objective 1.001154e+05, 1 iterations, 0.00 seconds

    Nodes    |    Current Node    |     Objective Bounds      |     Work
 Expl Unexpl |  Obj  Depth IntInf | Incumbent    BestBd   Gap | It/Node Time

     0     0 100115.421    0    1 90001.0000 100115.421  11.2%     -    0s
H    0     0                    96474.000000 100115.421  3.77%     -    0s
     0     0 100114.213    0    1 96474.0000 100114.213  3.77%     -    0s
     0     0 100114.213    0    1 96474.0000 100114.213  3.77%     -    0s
     0     2 100114.213    0    1 96474.0000 100114.213  3.77%     -    0s
H   37    33                    99924.000000 100109.640  0.19%   1.2    0s

Cutting planes:
  Cover: 89
  MIR: 1
  StrongCG: 1

Explored 3367 nodes (4304 simplex iterations) in 0.12 seconds
Thread count was 8 (of 8 available processors)

Solution count 3: 99924 96474 90001 

Optimal solution found (tolerance 1.00e-05)
Best objective 9.992400000000e+04, best bound 9.992400000000e+04, gap 0.0000%

Gurobi 8.1.0 (win64, Python) logging started 03/15/19 10:13:16

Changed value of parameter MIPGap to 1e-05
   Prev: 0.0001  Min: 0.0  Max: 1e+100  Default: 0.0001
Optimize a model with 1 rows, 30 columns and 30 nonzeros
Variable types: 0 continuous, 30 integer (30 binary)
Coefficient statistics:
  Matrix range     [1e+04, 9e+04]
  Objective range  [1e+04, 9e+04]
  Bounds range     [1e+00, 1e+00]
  RHS range        [1e+05, 1e+05]
Found heuristic solution: objective 90000.000000
Presolve removed 0 rows and 1 columns
Presolve time: 0.00s
Presolved: 1 rows, 29 columns, 29 nonzeros
Variable types: 0 continuous, 29 integer (29 binary)

Root relaxation: objective 9.995426e+04, 1 iterations, 0.00 seconds

    Nodes    |    Current Node    |     Objective Bounds      |     Work
 Expl Unexpl |  Obj  Depth IntInf | Incumbent    BestBd   Gap | It/Node Time

     0     0 99954.2584    0    1 90000.0000 99954.2584  11.1%     -    0s
H    0     0                    99798.000000 99954.2584  0.16%     -    0s
     0     0 99951.3889    0    2 99798.0000 99951.3889  0.15%     -    0s
     0     0 99951.3889    0    2 99798.0000 99951.3889  0.15%     -    0s
     0     0 99951.3889    0    2 99798.0000 99951.3889  0.15%     -    0s

Cutting planes:
  Cover: 1
  MIR: 1

Explored 1 nodes (4 simplex iterations) in 0.01 seconds
Thread count was 8 (of 8 available processors)

Solution count 2: 99798 90000 

Optimal solution found (tolerance 1.00e-05)
Best objective 9.979800000000e+04, best bound 9.979800000000e+04, gap 0.0000%
Changed value of parameter MIPGap to 1e-05
   Prev: 0.0001  Min: 0.0  Max: 1e+100  Default: 0.0001
Optimize a model with 1 rows, 50 columns and 50 nonzeros
Variable types: 0 continuous, 50 integer (50 binary)
Coefficient statistics:
  Matrix range     [6e+02, 2e+05]
  Objective range  [7e+01, 1e+05]
  Bounds range     [1e+00, 1e+00]
  RHS range        [3e+05, 3e+05]
Found heuristic solution: objective 140034.00000
Presolve removed 0 rows and 1 columns
Presolve time: 0.00s
Presolved: 1 rows, 49 columns, 49 nonzeros
Variable types: 0 continuous, 49 integer (48 binary)

Root relaxation: objective 1.424183e+05, 1 iterations, 0.00 seconds

    Nodes    |    Current Node    |     Objective Bounds      |     Work
 Expl Unexpl |  Obj  Depth IntInf | Incumbent    BestBd   Gap | It/Node Time

     0     0 142418.261    0    1 140034.000 142418.261  1.70%     -    0s
H    0     0                    141907.00000 142418.261  0.36%     -    0s
H    0     0                    142156.00000 142418.261  0.18%     -    0s
     0     0 142348.855    0    1 142156.000 142348.855  0.14%     -    0s
     0     0 142309.756    0    1 142156.000 142309.756  0.11%     -    0s
     0     0 142307.298    0    1 142156.000 142307.298  0.11%     -    0s

Cutting planes:
  Cover: 2
  MIR: 1

Explored 1 nodes (4 simplex iterations) in 0.03 seconds
Thread count was 8 (of 8 available processors)

Solution count 3: 142156 141907 140034 

Optimal solution found (tolerance 1.00e-05)
Best objective 1.421560000000e+05, best bound 1.421560000000e+05, gap 0.0000%
Changed value of parameter MIPGap to 1e-05
   Prev: 0.0001  Min: 0.0  Max: 1e+100  Default: 0.0001
Optimize a model with 1 rows, 200 columns and 200 nonzeros
Variable types: 0 continuous, 200 integer (200 binary)
Coefficient statistics:
  Matrix range     [1e+04, 9e+04]
  Objective range  [1e+04, 9e+04]
  Bounds range     [1e+00, 1e+00]
  RHS range        [1e+05, 1e+05]
Found heuristic solution: objective 90001.000000
Presolve time: 0.00s
Presolved: 1 rows, 200 columns, 200 nonzeros
Variable types: 0 continuous, 200 integer (200 binary)

Root relaxation: objective 1.002853e+05, 1 iterations, 0.00 seconds

    Nodes    |    Current Node    |     Objective Bounds      |     Work
 Expl Unexpl |  Obj  Depth IntInf | Incumbent    BestBd   Gap | It/Node Time

     0     0 100285.340    0    1 90001.0000 100285.340  11.4%     -    0s
H    0     0                    100062.00000 100285.340  0.22%     -    0s
H    0     0                    100236.00000 100285.078  0.05%     -    0s
     0     0 100283.988    0    1 100236.000 100283.988  0.05%     -    0s

Cutting planes:
  Cover: 1

Explored 1 nodes (2 simplex iterations) in 0.05 seconds
Thread count was 8 (of 8 available processors)

Solution count 3: 100236 100062 90001 

Optimal solution found (tolerance 1.00e-05)
Best objective 1.002360000000e+05, best bound 1.002360000000e+05, gap 0.0000%
Changed value of parameter MIPGap to 1e-05
   Prev: 0.0001  Min: 0.0  Max: 1e+100  Default: 0.0001
Optimize a model with 1 rows, 400 columns and 400 nonzeros
Variable types: 0 continuous, 400 integer (400 binary)
Coefficient statistics:
  Matrix range     [5e+02, 3e+06]
  Objective range  [2e+01, 1e+06]
  Bounds range     [1e+00, 1e+00]
  RHS range        [9e+06, 9e+06]
Found heuristic solution: objective 3936579.0000
Presolve removed 0 rows and 66 columns
Presolve time: 0.00s
Presolved: 1 rows, 334 columns, 334 nonzeros
Variable types: 0 continuous, 334 integer (304 binary)

Root relaxation: objective 3.967618e+06, 1 iterations, 0.00 seconds

    Nodes    |    Current Node    |     Objective Bounds      |     Work
 Expl Unexpl |  Obj  Depth IntInf | Incumbent    BestBd   Gap | It/Node Time

     0     0 3967617.87    0    1 3936579.00 3967617.87  0.79%     -    0s
H    0     0                    3966776.0000 3967617.87  0.02%     -    0s
H    0     0                    3967080.0000 3967617.87  0.01%     -    0s
H    0     0                    3967108.0000 3967617.87  0.01%     -    0s
H    0     0                    3967132.0000 3967613.72  0.01%     -    0s
H    0     0                    3967152.0000 3967441.49  0.01%     -    0s
H    0     0                    3967164.0000 3967441.49  0.01%     -    0s
     0     0 3967412.38    0    1 3967164.00 3967412.38  0.01%     -    0s
H    0     0                    3967180.0000 3967412.38  0.01%     -    0s
     0     0 3967396.69    0    1 3967180.00 3967396.69  0.01%     -    0s
     0     2 3967396.69    0    1 3967180.00 3967396.69  0.01%     -    0s

Cutting planes:
  Gomory: 2
  Cover: 4
  MIR: 3
  StrongCG: 3

Explored 8158 nodes (10615 simplex iterations) in 0.80 seconds
Thread count was 8 (of 8 available processors)

Solution count 8: 3.96718e+06 3.96716e+06 3.96715e+06 ... 3.93658e+06

Optimal solution found (tolerance 1.00e-05)
Best objective 3.967180000000e+06, best bound 3.967211622679e+06, gap 0.0008%
Changed value of parameter MIPGap to 1e-05
   Prev: 0.0001  Min: 0.0  Max: 1e+100  Default: 0.0001
Optimize a model with 1 rows, 1000 columns and 1000 nonzeros
Variable types: 0 continuous, 1000 integer (1000 binary)
Coefficient statistics:
  Matrix range     [1e+00, 2e+04]
  Objective range  [1e+00, 2e+04]
  Bounds range     [1e+00, 1e+00]
  RHS range        [1e+05, 1e+05]
Found heuristic solution: objective 100891.00000
Presolve time: 0.00s
Presolved: 1 rows, 1000 columns, 1000 nonzeros
Variable types: 0 continuous, 1000 integer (1000 binary)

Root relaxation: objective 1.099083e+05, 1 iterations, 0.00 seconds

    Nodes    |    Current Node    |     Objective Bounds      |     Work
 Expl Unexpl |  Obj  Depth IntInf | Incumbent    BestBd   Gap | It/Node Time

     0     0 109908.296    0    1 100891.000 109908.296  8.94%     -    0s
H    0     0                    109798.00000 109908.296  0.10%     -    0s
H    0     0                    109867.00000 109908.296  0.04%     -    0s
H    0     0                    109899.00000 109908.296  0.01%     -    0s
     0     0 109901.520    0    2 109899.000 109901.520  0.00%     -    0s

Cutting planes:
  MIR: 1

Explored 1 nodes (2 simplex iterations) in 0.06 seconds
Thread count was 8 (of 8 available processors)

Solution count 4: 109899 109867 109798 100891 

Optimal solution found (tolerance 1.00e-05)
Best objective 1.098990000000e+05, best bound 1.098990000000e+05, gap 0.0000%
Changed value of parameter MIPGap to 1e-05
   Prev: 0.0001  Min: 0.0  Max: 1e+100  Default: 0.0001
Optimize a model with 1 rows, 10000 columns and 10000 nonzeros
Variable types: 0 continuous, 10000 integer (10000 binary)
Coefficient statistics:
  Matrix range     [9e+00, 2e+05]
  Objective range  [8e+00, 2e+05]
  Bounds range     [1e+00, 1e+00]
  RHS range        [1e+06, 1e+06]
Found heuristic solution: objective 1012574.0000
Presolve time: 0.03s
Presolved: 1 rows, 10000 columns, 10000 nonzeros
Variable types: 0 continuous, 10000 integer (10000 binary)

Root relaxation: objective 1.099906e+06, 1 iterations, 0.01 seconds

    Nodes    |    Current Node    |     Objective Bounds      |     Work
 Expl Unexpl |  Obj  Depth IntInf | Incumbent    BestBd   Gap | It/Node Time

     0     0 1099906.01    0    1 1012574.00 1099906.01  8.62%     -    0s
H    0     0                    1099607.0000 1099906.01  0.03%     -    0s
H    0     0                    1099807.0000 1099906.01  0.01%     -    0s
H    0     0                    1099838.0000 1099906.01  0.01%     -    0s
H    0     0                    1099885.0000 1099906.01  0.00%     -    0s
H    0     0                    1099893.0000 1099904.40  0.00%     -    0s

Cutting planes:
  Cover: 1

Explored 1 nodes (1 simplex iterations) in 0.26 seconds
Thread count was 8 (of 8 available processors)

Solution count 6: 1.09989e+06 1.09989e+06 1.09984e+06 ... 1.01257e+06

Optimal solution found (tolerance 1.00e-05)
Best objective 1.099893000000e+06, best bound 1.099902000000e+06, gap 0.0008%
